# vtk DataFile Version 3.0
Resultados de Analisis de Elementos Finitos
ASCII
DATASET UNSTRUCTURED_GRID

POINTS 9 double
0 0 0
4 0 0
4 4 0
0 4 0
2 0 0
4 2 0
2 4 0
0 2 0
2 2 0

CELLS 8 32
3 0 4 7
3 7 4 8
3 7 8 3
3 3 8 6
3 4 1 8
3 8 1 5
3 8 5 6
3 6 5 2

CELL_TYPES 8
5
5
5
5
5
5
5
5

POINT_DATA 9
VECTORS Desplazamientos double
0 0 0.0
0.0524396 0.00533646 0.0
0.0583485 -0.0140855 0.0
0 0 0.0
0.0242102 0.00517279 0.0
0.0420158 -0.00173525 0.0
0.0273655 -0.00648231 0.0
0 0 0.0
0.0214605 -0.000922888 0.0

CELL_DATA 8
SCALARS Esfuerzo_Von_Mises double 1
LOOKUP_TABLE default
2389.64
2152.72
2097
2690.42
2785.3
2207.96
2070.98
3231.54

SCALARS Sigma_x double 1
LOOKUP_TABLE default
2660.46
2157.34
2358.29
2823.92
2901.17
2025.69
2075.55
2997.58

SCALARS Sigma_y double 1
LOOKUP_TABLE default
798.137
37.6325
707.488
291.233
260.784
-99.4631
66.723
-335.751

SCALARS Tau_xy double 1
LOOKUP_TABLE default
198.954
-141.254
-35.4957
-22.2041
-99.4631
-432.159
195.871
335.751

